Linux optc-01-10 4.15.0-58-generic #64-Ubuntu SMP Tue Aug 6 11:12:41 UTC 2019 x86_64 x86_64 x86_64 GNU/Linux

top - 04:03:46 up 1 day, 18:04,  0 users,  load average: 0,48, 0,87, 0,95
Tasks: 289 gesamt,   1 laufend, 149 schlafend,   0 gestoppt,   0 Zombie
%CPU(s):  6,8 be,  0,2 sy,  0,0 ni, 93,0 un,  0,0 wa,  0,0 hi,  0,0 si,  0,0 st
KiB Spch : 97514992 gesamt, 95245688 frei,   650204 belegt,  1619104 Puff/Cache
KiB Swap:  8388604 gesamt,  8388604 frei,        0 belegt. 96122336 verfü Spch 

  PID USER      PR  NI    VIRT    RES    SHR S  %CPU %MEM     ZEIT+ BEFEHL
24704 bzfhende  20   0   52664   4172   3428 R   4,2  0,0   0:00.01 top
    1 root      20   0  233836   9416   6688 S   0,0  0,0   0:13.80 systemd
    2 root      20   0       0      0      0 S   0,0  0,0   0:00.17 kthreadd
    4 root       0 -20       0      0      0 I   0,0  0,0   0:00.00 kworker/0:+
    6 root      20   0       0      0      0 I   0,0  0,0   0:00.00 kworker/u3+
    7 root       0 -20       0      0      0 I   0,0  0,0   0:00.00 mm_percpu_+
    8 root      20   0       0      0      0 S   0,0  0,0   0:00.02 ksoftirqd/0
    9 root      20   0       0      0      0 I   0,0  0,0   0:11.45 rcu_sched

hard time limit: 04:10:00
hard mem limit: 55100

SLURM jobID: 2182949

@01 /nfs/optimi/kombadon/IP/miplib2003/t1717.mps.gz ===========
-----------------------------
Fr 23. Aug 04:03:46 CEST 2019
-----------------------------
@03 1566525826
@05 7200
SCIP version 6.0.0 [precision: 8 byte] [memory: block] [mode: optimized] [LP solver: CPLEX 12.8.0.0] [GitHash: 41ab6e0014]
Copyright (C) 2002-2018 Konrad-Zuse-Zentrum fuer Informationstechnik Berlin (ZIB)

External codes: 
  Readline 7.0         GNU library for command line editing (gnu.org/s/readline)
  CPLEX 12.8.0.0       Linear Programming Solver developed by IBM (www.cplex.com)
  CppAD 20180000.0     Algorithmic Differentiation of C++ algorithms developed by B. Bell (www.coin-or.org/CppAD)
  ZLIB 1.2.11          General purpose compression library by J. Gailly and M. Adler (zlib.net)
  GMP 6.1.2            GNU Multiple Precision Arithmetic Library developed by T. Granlund (gmplib.org)
  bliss 0.73p          Computing Graph Automorphism Groups by T. Junttila and P. Kaski (http://www.tcs.hut.fi/Software/bliss/)

user parameter file <scip.set> not found - using default parameters

SCIP> 
SCIP> set load /home/optimi/bzfhende/opti/scip-opti/check/../settings/enable_treeeprofile.set
loaded parameter file </home/optimi/bzfhende/opti/scip-opti/check/../settings/enable_treeprofile.set>
SCIP> set misc referencevalue 1.6886700000e+05
misc/referencevalue = 168867
SCIP> set limits time 7200
limits/time = 7200
SCIP> set limits nodes 2100000000
limits/nodes = 2100000000
SCIP> set limits memory 50000
limits/memory = 50000
SCIP> set lp advanced threads 1
lp/threads = 1
SCIP> set timing clocktype 1
timing/clocktype = 1
SCIP> set display freq 10000
display/freq = 10000
SCIP> set memory savefac 1.0
memory/savefac = 1
SCIP> set save /home/optimi/bzfhende/opti/scip-opti/check/treesize.estimation.jouurnal.3/bzfhende.MMMc.485_t1717.scip.M640.enable_treeprofile.set
saved parameter file </home/optimi/bzfhende/opti/scip-opti/check/treesize.estimation.journal.3/bzfhende.MMMc.485_t1717.scip.M640.enable_treeprofile.set>
SCIP> read /nfs/optimi/kombadon/IP/miplib2003/t1717.mps.gz

read problem </nfs/optimi/kombadon/IP/miplib2003/t1717.mps.gz>
============

original problem has 73885 variables (73885 bin, 0 int, 0 impl, 0 cont) and 551 constraints
SCIP> display parameters

number of parameters = 2448
non-default parameter settings:
display/freq = 10000
limits/time = 7200
limits/nodes = 2100000000
limits/memory = 50000
lp/threads = 1
memory/savefac = 1
misc/referencevalue = 168867
presolving/maxrestarts = 0
estimates/profile/enabled = TRUE
estimates/profile/maxdepthfactor = 10
estimates/profile/freq = 0

SCIP> optimize

Activating tree profile data collection
presolving:
(round 1, exhaustive) 0 del vars, 0 del conss, 0 add conss, 0 chg bounds, 0 chg sides, 0 chg coeffs, 551 upgd conss, 0 impls, 551 clqs
(round 2, fast)       5843 del vars, 0 del conss, 0 add conss, 0 chg bounds, 0 chg sides, 0 chg coeffs, 551 upgd conss, 0 impls, 551 clqs
(round 3, medium)     6169 del vars, 0 del conss, 0 add conss, 0 chg bounds, 326 chg sides, 326 chg coeffs, 551 upgd conss, 0 impls, 551 clqs
(round 4, exhaustive) 57783 del vars, 0 del conss, 0 add conss, 0 chg bounds, 326 chg sides, 326 chg coeffs, 551 upgd conss, 0 impls, 551 clqs
   (1.2s) probing: 51/16102 (0.3%) - 0 fixings, 0 aggregations, 0 implications, 0 bound changes
   (1.2s) probing aborted: 50/50 successive totally useless probings
presolving (5 rounds: 5 fast, 4 medium, 3 exhaustive):
 57783 deleted vars, 0 deleted constraints, 0 added constraints, 0 tightened bounds, 0 added holes, 326 changed sides, 326 changed coefficients
 0 implications, 551 cliques
presolved problem has 16102 variables (16102 bin, 0 int, 0 impl, 0 cont) and 551 constraints
    551 constraints of type <setppc>
transformed objective value is always integral (scale: 1)
Presolving Time: 1.13

 time | node  | left  |LP iter|LP it/n| mem |mdpt |frac |vars |cons |cols |rows |cuts |confs|strbr|  dualbound   | primalbound  |  gap   
V 7.5s|     1 |     0 |  1127 |     - | 333M|   0 | 236 |  16k| 737 |  16k| 551 |   0 | 185 |   0 |-1.257944e+08 | 2.372890e+05 |    Inf 
  9.7s|     1 |     0 |  7756 |     - | 337M|   0 | 511 |  16k| 847 |  16k| 551 |   0 | 295 |   0 | 1.345310e+05 | 2.372890e+05 |  76.38%
 10.5s|     1 |     0 |  7989 |     - | 345M|   0 | 514 |  16k| 847 |  16k| 554 |   3 | 295 |   0 | 1.346124e+05 | 2.372890e+05 |  76.28%
 10.9s|     1 |     0 |  8283 |     - | 345M|   0 | 519 |  16k| 847 |  16k| 556 |   5 | 295 |   0 | 1.347634e+05 | 2.372890e+05 |  76.08%
 11.3s|     1 |     0 |  8623 |     - | 345M|   0 | 525 |  16k| 847 |  16k| 563 |  12 | 295 |   0 | 1.349095e+05 | 2.372890e+05 |  75.89%
 11.7s|     1 |     0 |  8828 |     - | 345M|   0 | 524 |  16k| 851 |  16k| 566 |  15 | 299 |   0 | 1.349602e+05 | 2.372890e+05 |  75.82%
 12.1s|     1 |     0 |  8884 |     - | 346M|   0 | 524 |  16k| 861 |  16k| 567 |  16 | 309 |   0 | 1.349646e+05 | 2.372890e+05 |  75.82%
 12.5s|     1 |     0 |  9075 |     - | 346M|   0 | 531 |  16k| 861 |  16k| 576 |  25 | 309 |   0 | 1.350041e+05 | 2.372890e+05 |  75.76%
 12.9s|     1 |     0 |  9205 |     - | 346M|   0 | 539 |  16k| 861 |  16k| 581 |  30 | 309 |   0 | 1.350274e+05 | 2.372890e+05 |  75.73%
 13.2s|     1 |     0 |  9255 |     - | 346M|   0 | 541 |  16k| 860 |  16k| 583 |  32 | 309 |   0 | 1.350297e+05 | 2.372890e+05 |  75.73%
 13.6s|     1 |     0 |  9372 |     - | 346M|   0 | 546 |  16k| 860 |  16k| 587 |  36 | 309 |   0 | 1.350426e+05 | 2.372890e+05 |  75.71%
 14.0s|     1 |     0 |  9452 |     - | 346M|   0 | 544 |  16k| 868 |  16k| 590 |  39 | 317 |   0 | 1.350489e+05 | 2.372890e+05 |  75.71%
 14.3s|     1 |     0 |  9502 |     - | 346M|   0 | 548 |  16k| 874 |  16k| 596 |  45 | 323 |   0 | 1.350519e+05 | 2.372890e+05 |  75.70%
 14.7s|     1 |     0 |  9588 |     - | 347M|   0 | 556 |  16k| 874 |  16k| 600 |  49 | 323 |   0 | 1.350586e+05 | 2.372890e+05 |  75.69%
 15.0s|     1 |     0 |  9659 |     - | 347M|   0 | 558 |  16k| 874 |  16k| 604 |  53 | 323 |   0 | 1.350623e+05 | 2.372890e+05 |  75.69%
SCIP nodes: 1 Estimation: -1
 time | node  | left  |LP iter|LP it/n| mem |mdpt |frac |vars |cons |cols |rows |cuts |confs|strbr|  dualbound   | primalbound  |  gap   
 37.2s|     1 |     2 | 38427 |     - | 353M|   0 | 558 |  16k| 901 |  16k| 604 |  53 | 352 |  28 | 1.352323e+05 | 2.372890e+05 |  75.47%
   (37.3s) symmetry computation started: requiring (bin +, int -, cont -), (fixed: bin -, int +, cont -)
   (37.4s) no symmetry present
SCIP nodes: 2 Estimation: -1
SCIP nodes: 4 Estimation: -1
SCIP nodes: 8 Estimation: -1
SCIP nodes: 16 Estimation: -1
SCIP nodes: 32 Estimation: -1
SCIP nodes: 64 Estimation: -1
SCIP nodes: 128 Estimation: -1
SCIP nodes: 256 Estimation: 1730.29
SCIP nodes: 512 Estimation: 4468.25
SCIP nodes: 1024 Estimation: 21280.3
SCIP nodes: 2048 Estimation: 68194.1
e 777s|  2926 |  2927 |  1685k| 573.2 | 489M|  62 |   - |  16k|2081 |  16k| 602 |   0 |1770 |1067 | 1.358456e+05 | 2.269120e+05 |  67.04%
e 974s|  3479 |  3480 |  2220k| 636.0 | 506M|  69 |   - |  16k|2298 |  16k| 608 |   0 |2141 |1275 | 1.358988e+05 | 2.194240e+05 |  61.46%
SCIP nodes: 4096 Estimation: 187150
SCIP nodes: 8192 Estimation: 1.32549e+06
 3277s| 10000 | 10001 |  7910k| 790.3 | 831M|  71 | 497 |  16k|2045 |  16k| 605 | 294 |5488 |4473 | 1.362185e+05 | 2.194240e+05 |  61.08%
SCIP nodes: 16384 Estimation: 4.32302e+07
 6758s| 20000 | 20001 | 16322k| 815.7 |1338M|  71 | 490 |  16k|2387 |  16k| 605 | 650 |  10k|9754 | 1.362186e+05 | 2.194240e+05 |  61.08%

SCIP Status        : solving was interrupted [time limit reached]
Solving Time (sec) : 7200.00
Solving Nodes      : 21382
Primal Bound       : +2.19424000000000e+05 (40 solutions)
Dual Bound         : +1.36218628965174e+05
Gap                : 61.08 %

SCIP> display statistics

SCIP Status        : solving was interrupted [time limit reached]
Total Time         :    7200.18
  solving          :    7200.00
  presolving       :       1.13 (included in solving)
  reading          :       0.18
  copying          :       0.72 (28 #copies) (minimal 0.02, maximal 0.04, average 0.03)
Original Problem   :
  Problem name     : t1717
  Variables        : 73885 (73885 binary, 0 integer, 0 implicit integer, 0 continuous)
  Constraints      : 551 initial, 551 maximal
  Objective        : minimize, 73885 non-zeros (abs.min = 765, abs.max = 4066)
Presolved Problem  :
  Problem name     : t_t1717
  Variables        : 16102 (16102 binary, 0 integer, 0 implicit integer, 0 continuous)
  Constraints      : 551 initial, 2759 maximal
  Objective        : minimize, 16101 non-zeros (abs.min = 6, abs.max = 28830)
Presolvers         :   ExecTime  SetupTime  Calls  FixedVars   AggrVars   ChgTypes  ChgBounds   AddHoles    DelCons    AddCons   ChgSides   ChgCoefs
  boundshift       :       0.00       0.00      0          0          0          0          0          0          0          0          0          0
  convertinttobin  :       0.00       0.00      0          0          0          0          0          0          0          0          0          0
  domcol           :       0.17       0.00      2      51614          0          0          0          0          0          0          0          0
  dualagg          :       0.00       0.00      0          0          0          0          0          0          0          0          0          0
  dualcomp         :       0.00       0.00      0          0          0          0          0          0          0          0          0          0
  dualinfer        :       0.00       0.00      0          0          0          0          0          0          0          0          0          0
  gateextraction   :       0.00       0.00      0          0          0          0          0          0          0          0          0          0
  implics          :       0.00       0.00      4          0          0          0          0          0          0          0          0          0
  inttobinary      :       0.00       0.00      0          0          0          0          0          0          0          0          0          0
  qpkktref         :       0.00       0.00      0          0          0          0          0          0          0          0          0          0
  redvub           :       0.00       0.00      0          0          0          0          0          0          0          0          0          0
  sparsify         :       0.09       0.00      1          0          0          0          0          0          0          0          0          0
  stuffing         :       0.00       0.00      0          0          0          0          0          0          0          0          0          0
  symbreak         :       0.00       0.00      0          0          0          0          0          0          0          0          0          0
  symmetry         :       0.00       0.00      0          0          0          0          0          0          0          0          0          0
  trivial          :       0.03       0.00      5          0          0          0          0          0          0          0          0          0
  tworowbnd        :       0.00       0.00      0          0          0          0          0          0          0          0          0          0
  dualfix          :       0.00       0.00      5          0          0          0          0          0          0          0          0          0
  genvbounds       :       0.00       0.01      0          0          0          0          0          0          0          0          0          0
  orbitalfixing    :       0.00       0.00      0          0          0          0          0          0          0          0          0          0
  probing          :       0.04       0.00      1          0          0          0          0          0          0          0          0          0
  pseudoobj        :       0.00       0.00      0          0          0          0          0          0          0          0          0          0
  vbounds          :       0.10       0.00      2          0          0          0          0          0          0          0          0          0
  knapsack         :       0.00       0.00      0          0          0          0          0          0          0          0          0          0
  setppc           :       0.35       0.00      9       5843        326          0          0          0          0          0        326        326
  linear           :       0.18       0.06      2          0          0          0          0          0          0          0          0          0
  logicor          :       0.00       0.00      0          0          0          0          0          0          0          0          0          0
  benders          :       0.00       0.00      0          0          0          0          0          0          0          0          0          0
  components       :       0.01       0.00      1          0          0          0          0          0          0          0          0          0
  root node        :          -          -      -          0          -          -          0          -          -          -          -          -
Constraints        :     Number  MaxNumber  #Separate #Propagate    #EnfoLP    #EnfoRelax  #EnfoPS    #Check   #ResProp    Cutoffs    DomReds       Cuts    Applied      Conss   Children
  benderslp        :          0          0          0          0      21381          0          0       1325          0          0          0          0          0          0          0
  integral         :          0          0          0          0      21381          0          0       1325          0          0          0          0          0          0      42762
  knapsack         :          0+         5          0     569631          0          0          0          0        156         16        204          0          0          0          0
  setppc           :        551        551         13     851989          0          0          0       1320     812246       1028    9454760          0          0          0          0
  logicor          :          0+      2204         13      36586          0          0          0          0        237         13        122          0          0          0          0
  benders          :          0          0          0          0          0          0          0         42          0          0          0          0          0          0          0
  countsols        :          0          0          0          0          0          0          0         42          0          0          0          0          0          0          0
  components       :          0          0          0          0          0          0          0          0          0          0          0          0          0          0          0
Constraint Timings :  TotalTime  SetupTime   Separate  Propagate     EnfoLP     EnfoPS     EnfoRelax   Check    ResProp    SB-Prop
  benderslp        :       0.01       0.00       0.00       0.00       0.00       0.00       0.00       0.01       0.00       0.00
  integral         :    1685.63       0.00       0.00       0.00    1685.63       0.00       0.00       0.00       0.00       0.00
  knapsack         :       0.47       0.00       0.00       0.45       0.00       0.00       0.00       0.00       0.01       0.01
  setppc           :      24.85       0.00       0.00      18.33       0.00       0.00       0.00       0.06       0.68       5.78
  logicor          :       0.94       0.00       0.00       0.74       0.00       0.00       0.00       0.00       0.00       0.20
  benders          :       0.00       0.00       0.00       0.00       0.00       0.00       0.00       0.00       0.00       0.00
  countsols        :       0.00       0.00       0.00       0.00       0.00       0.00       0.00       0.00       0.00       0.00
  components       :       0.36       0.00       0.00       0.36       0.00       0.00       0.00       0.00       0.00       0.00
Propagators        : #Propagate   #ResProp    Cutoffs    DomReds
  dualfix          :          2          0          0          0
  genvbounds       :          0          0          0          0
  nlobbt           :          0          0          0          0
  obbt             :          0          0          0          0
  orbitalfixing    :          1          0          0          0
  probing          :          0          0          0          0
  pseudoobj        :      60193          0          0          0
  redcost          :         15          0          0          0
  rootredcost      :          3          0          0          0
  vbounds          :     873319          0          0          0
Propagator Timings :  TotalTime  SetupTime   Presolve  Propagate    ResProp    SB-Prop
  dualfix          :       0.00       0.00       0.00       0.00       0.00       0.00
  genvbounds       :       0.50       0.01       0.00       0.49       0.00       0.00
  nlobbt           :       0.00       0.00       0.00       0.00       0.00       0.00
  obbt             :       0.00       0.00       0.00       0.00       0.00       0.00
  orbitalfixing    :       0.38       0.00       0.00       0.37       0.00       0.01
  probing          :       0.04       0.00       0.04       0.00       0.00       0.00
  pseudoobj        :       0.66       0.00       0.00       0.64       0.00       0.02
  redcost          :       0.57       0.00       0.00       0.55       0.00       0.02
  rootredcost      :       0.55       0.00       0.00       0.55       0.00       0.00
  vbounds          :       0.63       0.00       0.10       0.53       0.00       0.00
Conflict Analysis  :       Time      Calls    Success    DomReds  Conflicts   Literals    Reconvs ReconvLits   Dualrays   Nonzeros   LP Iters   (pool size: [10000,10000])
  propagation      :       1.02       1053       1053          -      26830      280.7        400      171.7          -          -          -
  infeasible LP    :       0.22         28         28          -        546      238.2          3      127.3         28      701.4          0
  bound exceed. LP :      45.96        963        101          -       4261     3603.1          1      169.0          0        0.0      19040
  strong branching :       0.00          0          0          -          0        0.0          0        0.0          -          -          0
  pseudo solution  :       0.00          0          0          -          0        0.0          0        0.0          -          -          -
  applied globally :       2.91          -          -          0      11086      107.9          -          -         28          -          -
  applied locally  :          -          -          -          0          0        0.0          -          -          0          -          -
Separators         :   ExecTime  SetupTime      Calls    Cutoffs    DomReds       Cuts    Applied      Conss
  cut pool         :       0.01                  2599          -          -        689          -          -    (maximal pool size: 72)
  aggregation      :       1.79       0.00       1091          0          0          0          0          0
  cgmip            :       0.00       0.00          0          0          0          0          0          0
  clique           :       0.52       0.00         13          0          0          0        179          0
  closecuts        :       0.00       0.00          0          0          0          0          0          0
  cmir             :       0.00       0.00          0          0          0          0          0          0
  convexproj       :       0.00       0.00          0          0          0          0          0          0
  disjunctive      :       0.00       0.00          0          0          0          0          0          0
  eccuts           :       0.00       0.00          0          0          0          0          0          0
  flowcover        :       0.00       0.00          0          0          0          0          0          0
  gauge            :       0.00       0.00          0          0          0          0          0          0
  gomory           :      17.37       0.00       1088          0          0          0        133          0
  impliedbounds    :       0.33       0.00       1091          0          0          0          0          0
  intobj           :       0.00       0.00          0          0          0          0          0          0
  mcf              :       0.00       0.00          1          0          0          0          0          0
  oddcycle         :       0.00       0.00          0          0          0          0          0          0
  rapidlearning    :       0.00       0.00          0          0          0          0          0          0
  strongcg         :       0.24       0.00         16          0          0          0          0          0
  zerohalf         :     191.38       0.00       1091          0          0          0        352          0
Pricers            :   ExecTime  SetupTime      Calls       Vars
  problem variables:       0.00          -          0          0
Branching Rules    :   ExecTime  SetupTime   BranchLP  BranchExt   BranchPS    Cutoffs    DomReds       Cuts      Conss   Children
  allfullstrong    :       0.00       0.00          0          0          0          0          0          0          0          0
  cloud            :       0.00       0.00          0          0          0          0          0          0          0          0
  distribution     :       0.00       0.00          0          0          0          0          0          0          0          0
  fullstrong       :       0.00       0.00          0          0          0          0          0          0          0          0
  inference        :       0.00       0.00          0          0          0          0          0          0          0          0
  leastinf         :       0.00       0.00          0          0          0          0          0          0          0          0
  lookahead        :       0.00       0.00          0          0          0          0          0          0          0          0
  mostinf          :       0.00       0.00          0          0          0          0          0          0          0          0
  multaggr         :       0.00       0.00          0          0          0          0          0          0          0          0
  nodereopt        :       0.00       0.00          0          0          0          0          0          0          0          0
  pscost           :       0.00       0.00          0          0          0          0          0          0          0          0
  random           :       0.00       0.00          0          0          0          0          0          0          0          0
  relpscost        :    1685.55       0.00      21381          0          0          0          0          0          0      42762
Primal Heuristics  :   ExecTime  SetupTime      Calls      Found       Best
  LP solutions     :       0.00          -          -          0          0
  relax solutions  :       0.00          -          -          0          0
  pseudo solutions :       0.00          -          -          0          0
  strong branching :       0.04          -          -          0          0
  actconsdiving    :       0.00       0.00          0          0          0
  alns             :      35.81       0.00          6          0          0
  bound            :       0.00       0.00          0          0          0
  clique           :       0.06       0.00          1          0          0
  coefdiving       :     175.69       0.00        183          0          0
  completesol      :       0.00       0.00          0          0          0
  conflictdiving   :       0.00       0.00          0          0          0
  crossover        :       0.77       0.00         10          6          0
  dins             :       0.00       0.00          0          0          0
  distributiondivin:     320.98       0.00        168          2          2
  dualval          :       0.00       0.00          0          0          0
  farkasdiving     :       5.07       0.00          1          0          0
  feaspump         :       8.60       0.00          5          5          0
  fixandinfer      :       0.00       0.00          0          0          0
  fracdiving       :     174.86       0.00        149          0          0
  gins             :       0.07       0.00          0          0          0
  guideddiving     :     214.35       0.00        183          0          0
  indicator        :       0.01       0.00          0          0          0
  intdiving        :       0.00       0.00          0          0          0
  intshifting      :       0.00       0.00          0          0          0
  linesearchdiving :     137.19       0.00        163          0          0
  localbranching   :       0.00       0.00          0          0          0
  locks            :       0.12       0.00          1          0          0
  lpface           :       0.02       0.00          0          0          0
  mpec             :       0.00       0.00          0          0          0
  multistart       :       0.00       0.00          0          0          0
  mutation         :       0.00       0.00          0          0          0
  nlpdiving        :       0.00       0.00          0          0          0
  objpscostdiving  :     163.29       0.00        104          0          0
  octane           :       0.00       0.00          0          0          0
  ofins            :       0.02       0.00          0          0          0
  oneopt           :       0.04       0.00          3          0          0
  proximity        :       0.00       0.00          0          0          0
  pscostdiving     :     164.19       0.00        158          0          0
  randrounding     :       0.57       0.00       1281          0          0
  rens             :       1.02       0.00          1          0          0
  reoptsols        :       0.00       0.00          0          0          0
  repair           :       0.00       0.00          0          0          0
  rins             :       6.73       0.00         10          5          0
  rootsoldiving    :     158.96       0.00         45         21          0
  rounding         :       4.08       0.00       2038          0          0
  shiftandpropagate:       0.00       0.00          0          0          0
  shifting         :       3.78       0.00        658          0          0
  simplerounding   :       0.05       0.00      21819          0          0
  subnlp           :       0.02       0.00          0          0          0
  trivial          :       0.06       0.00          2          0          0
  trivialnegation  :       0.00       0.00          0          0          0
  trysol           :       0.02       0.00          0          0          0
  twoopt           :       0.00       0.00          0          0          0
  undercover       :       0.00       0.00          0          0          0
  vbounds          :       6.34       0.00          1          1          1
  veclendiving     :     219.35       0.00        180          0          0
  zeroobj          :       0.00       0.00          0          0          0
  zirounding       :       0.11       0.00       1000          0          0
  other solutions  :          -          -          -          0          -
Diving Statistics  :      Calls      Nodes   LP Iters Backtracks  Conflicts   MinDepth   MaxDepth   AvgDepth  RoundSols  NLeafSols  MinSolDpt  MaxSolDpt  AvgSolDpt
  actconsdiving    :          0          -          -          -          -          -          -          -          -          -          -          -          -
  coefdiving       :        183     136990     610807        168       3951        375       1068      789.3          0          -          -          -          -
  conflictdiving   :          0          -          -          -          -          -          -          -          -          -          -          -          -
  distributiondivin:        168      51213    1375587        164       1118         68        821      344.1          0          2         92        112      102.0
  farkasdiving     :          1         72      20027         14         34         59         59       59.0          0          -          -          -          -
  fracdiving       :        149     111628     619615        367       3613         86       1141      787.0          0          -          -          -          -
  guideddiving     :        183     153070     611650          2        193        418       1145      877.1          0          -          -          -          -
  linesearchdiving :        163      25933     613885        966      22664         64        552      193.2          0          -          -          -          -
  pscostdiving     :        158     110423     618511          0          0        340        828      739.9          0          -          -          -          -
  veclendiving     :        180     152600     610040          0          0        438       1143      889.0          0          -          -          -          -
Neighborhoods      :      Calls  SetupTime  SolveTime SolveNodes       Sols       Best       Exp3  EpsGreedy        UCB TgtFixRate  Opt  Inf Node Stal  Sol  Usr Othr Actv
  rens             :          1       0.06       5.90         54          0          0    0.00000   -1.00000    1.00000      0.900    0    0    0    1    0    0    0    1
  rins             :          1       0.05       4.82         50          0          0    0.00000   -1.00000    1.00000      0.900    0    0    0    1    0    0    0    1
  mutation         :          1       0.05       0.02          0          0          0    0.00000   -1.00000    1.00000      0.700    0    1    0    0    0    0    0    1
  localbranching   :          1       0.04       6.77         55          0          0    0.00000   -1.00000    1.00000      0.900    0    0    0    1    0    0    0    1
  crossover        :          1       0.05       8.46         83          0          0    0.00000   -1.00000    1.00000      0.900    0    0    0    1    0    0    0    1
  proximity        :          1       0.05       9.46         50          0          0    0.00000   -1.00000    1.00000      0.900    0    0    0    1    0    0    0    1
  zeroobjective    :          0       0.00       0.00          0          0          0    0.00000   -1.00000    1.00000      0.900    0    0    0    0    0    0    0    1
  dins             :          0       0.00       0.00          0          0          0    0.00000   -1.00000    1.00000      0.900    0    0    0    0    0    0    0    1
LP                 :       Time      Calls Iterations  Iter/call   Iter/sec  Time-0-It Calls-0-It    ItLimit
  primal LP        :      78.35        556          0       0.00       0.00      78.35        556
  dual LP          :    3363.79      21820   11541930     528.96    3431.23       0.00          0
  lex dual LP      :       0.00          0          0       0.00          -
  barrier LP       :       0.00          0          0       0.00          -       0.00          0
  resolve instable :       0.00          0          0       0.00          -
  diving/probing LP:    1448.99      10083    5929671     588.09    4092.28
  strong branching :    1655.25      10276    5695626     554.26    3440.95          -          -       8680
    (at root node) :          -         28      18635     665.54          -
  conflict analysis:       5.58       1904      19040      10.00    3412.19
B&B Tree           :
  number of runs   :          1
  nodes            :      21382 (21381 internal, 1 leaves)
  feasible leaves  :          0
  infeas. leaves   :          0
  objective leaves :          0
  nodes (total)    :      21382 (21381 internal, 1 leaves)
  nodes left       :      21382
  max depth        :         71
  max depth (total):         71
  backtracks       :       2480 (11.6%)
  early backtracks :       2480 (100.0%)
  nodes exc. ref.  :          0 (0.0%)
  delayed cutoffs  :          0
  repropagations   :          0 (0 domain reductions, 0 cutoffs)
  avg switch length:       4.08
  switching time   :      93.17
Root Node          :
  First LP value   : +1.34531021428417e+05
  First LP Iters   :       6606 (3551.61 Iter/sec)
  First LP Time    :       1.86
  Final Dual Bound : +1.35232306541423e+05
  Final Root Iters :       8509
  Root LP Estimate : +1.56226060247635e+05
Solution           :
  Solutions found  :         40 (3 improvements)
  First Solution   : +2.37289000000000e+05   (in run 1, after 1 nodes, 1.75 seconds, depth 45, found by <vbounds>)
  Gap First Sol.   :   infinite
  Gap Last Sol.    :      61.46 %
  Primal Bound     : +2.19424000000000e+05   (in run 1, after 3479 nodes, 973.50 seconds, depth 112, found by <distributiondiving>)
  Dual Bound       : +1.36218628965174e+05
  Gap              :      61.08 %
  Avg. Gap         :      38.60 % (277941.54 primal-dual integral)
  Tree Data        : 42763 nodes (21381 visited, 21381 inner, 0 leaves, 21382 open), progress: 0.0000
Tree Estimation    :       estim       value       trend  resolution      smooth
  wbe              :          -1           -           -           -           -
  tree profile     :    63602317           -           -           -           -
  gap              :          -1     0.00000 999999999999999967336168804116691273849533185806555472917961779471295845921727862608739868455469056.00000           1 999999999999999967336168804116691273849533185806555472917961779471295845921727862608739868455469056
  progress         :          -1     0.00000 999999999999999967336168804116691273849533185806555472917961779471295845921727862608739868455469056.00000           1 999999999999999967336168804116691273849533185806555472917961779471295845921727862608739868455469056
  leaf-frequency   :          -1    -0.50000 999999999999999967336168804116691273849533185806555472917961779471295845921727862608739868455469056.00000           1 999999999999999967336168804116691273849533185806555472917961779471295845921727862608739868455469056
  ssg              :          -1     1.00000 999999999999999967336168804116691273849533185806555472917961779471295845921727862608739868455469056.00000           1 999999999999999967336168804116691273849533185806555472917961779471295845921727862608739868455469056
  open-nodes       :          -1     0.00000 999999999999999967336168804116691273849533185806555472917961779471295845921727862608739868455469056.00000           1 999999999999999967336168804116691273849533185806555472917961779471295845921727862608739868455469056

@04 1566533049
-----------------------------
Fr 23. Aug 06:04:09 CEST 2019
-----------------------------

=ready=
